;; translated from ./ctigar/nested9.c.vmt
;; original benchmark available at: https://es-static.fbk.eu/people/griggio/ic3ia/index.html
;; author: Alberto Griggio <griggio@fbk.eu>
(set-logic HORN)
(declare-fun state (Bool Bool Bool Bool Bool Int Int Int Int Int Int) Bool)
(assert (forall ((|.s.2| Bool) (|.s.3| Bool) (|.s.0| Bool) (|.s.1| Bool) (|.s.0.next| Bool) (|.s.1.next| Bool) (|.s.2.next| Bool) (|.s.3.next| Bool) (|.s.4.next| Bool) (|main.i.next| Int) (|main.i| Int) (|main.j.next| Int) (|main.j| Int) (|main.k.next| Int) (|main.k| Int) (|main.l.next| Int) (|main.l| Int) (|main.m.next| Int) (|main.m| Int) (|main.n.next| Int) (|main.n| Int) (|.s.4| Bool)) (=> (let ((.def_20 (not .s.4)))
(let ((.def_17 (not .s.3)))
(let ((.def_14 (not .s.2)))
(let ((.def_10 (not .s.1)))
(let ((.def_12 (and .def_10 .s.0)))
(let ((.def_15 (and .def_12 .def_14)))
(let ((.def_18 (and .def_15 .def_17)))
(let ((.def_21 (and .def_18 .def_20)))
.def_21)))))))) (state |.s.1| |.s.0| |.s.2| |.s.3| |.s.4| |main.n| |main.m| |main.l| |main.k| |main.j| |main.i|))))
(assert (forall ((|.s.2| Bool) (|.s.3| Bool) (|.s.0| Bool) (|.s.1| Bool) (|.s.0.next| Bool) (|.s.1.next| Bool) (|.s.2.next| Bool) (|.s.3.next| Bool) (|.s.4.next| Bool) (|main.i.next| Int) (|main.i| Int) (|main.j.next| Int) (|main.j| Int) (|main.k.next| Int) (|main.k| Int) (|main.l.next| Int) (|main.l| Int) (|main.m.next| Int) (|main.m| Int) (|main.n.next| Int) (|main.n| Int) (|.s.4| Bool)) (=> (and (state |.s.1| |.s.0| |.s.2| |.s.3| |.s.4| |main.n| |main.m| |main.l| |main.k| |main.j| |main.i|) (let ((.def_22 (not .s.0)))
(let ((.def_10 (not .s.1)))
(let ((.def_79 (and .def_10 .def_22)))
(let ((.def_14 (not .s.2)))
(let ((.def_80 (and .def_14 .def_79)))
(let ((.def_17 (not .s.3)))
(let ((.def_81 (and .def_17 .def_80)))
(let ((.def_20 (not .s.4)))
(let ((.def_373 (and .def_20 .def_81)))
(let ((.def_374 (not .def_373)))
(let ((.def_55 (not .s.0.next)))
(let ((.def_53 (not .s.1.next)))
(let ((.def_56 (and .def_53 .def_55)))
(let ((.def_51 (not .s.2.next)))
(let ((.def_57 (and .def_51 .def_56)))
(let ((.def_49 (not .s.3.next)))
(let ((.def_58 (and .def_49 .def_57)))
(let ((.def_47 (not .s.4.next)))
(let ((.def_59 (and .def_47 .def_58)))
(let ((.def_45 (= main.i main.i.next)))
(let ((.def_60 (and .def_45 .def_59)))
(let ((.def_42 (= main.j main.j.next)))
(let ((.def_61 (and .def_42 .def_60)))
(let ((.def_39 (= main.k main.k.next)))
(let ((.def_62 (and .def_39 .def_61)))
(let ((.def_36 (= main.l main.l.next)))
(let ((.def_63 (and .def_36 .def_62)))
(let ((.def_33 (= main.m main.m.next)))
(let ((.def_64 (and .def_33 .def_63)))
(let ((.def_30 (= main.n main.n.next)))
(let ((.def_65 (and .def_30 .def_64)))
(let ((.def_375 (or .def_65 .def_374)))
(let ((.def_105 (and .s.1.next .def_55)))
(let ((.def_207 (and .def_51 .def_105)))
(let ((.def_319 (and .def_49 .def_207)))
(let ((.def_365 (and .def_47 .def_319)))
(let ((.def_366 (and .def_45 .def_365)))
(let ((.def_367 (and .def_42 .def_366)))
(let ((.def_368 (and .def_39 .def_367)))
(let ((.def_369 (and .def_36 .def_368)))
(let ((.def_370 (and .def_33 .def_369)))
(let ((.def_371 (and .def_30 .def_370)))
(let ((.def_345 (* (- 1) main.l)))
(let ((.def_346 (* (- 1) main.m)))
(let ((.def_347 (+ .def_346 .def_345)))
(let ((.def_348 (* 3 main.n)))
(let ((.def_349 (+ .def_348 .def_347)))
(let ((.def_350 (<= .def_349 0)))
(let ((.def_362 (not .def_350)))
(let ((.def_12 (and .def_10 .s.0)))
(let ((.def_15 (and .def_12 .def_14)))
(let ((.def_18 (and .def_15 .def_17)))
(let ((.def_21 (and .def_18 .def_20)))
(let ((.def_363 (and .def_21 .def_362)))
(let ((.def_364 (not .def_363)))
(let ((.def_372 (or .def_364 .def_371)))
(let ((.def_376 (and .def_372 .def_375)))
(let ((.def_123 (and .s.1.next .s.0.next)))
(let ((.def_180 (and .def_51 .def_123)))
(let ((.def_353 (and .def_49 .def_180)))
(let ((.def_354 (and .def_47 .def_353)))
(let ((.def_355 (and .def_45 .def_354)))
(let ((.def_356 (and .def_42 .def_355)))
(let ((.def_357 (and .def_39 .def_356)))
(let ((.def_358 (and .def_36 .def_357)))
(let ((.def_359 (and .def_33 .def_358)))
(let ((.def_360 (and .def_30 .def_359)))
(let ((.def_351 (and .def_21 .def_350)))
(let ((.def_352 (not .def_351)))
(let ((.def_361 (or .def_352 .def_360)))
(let ((.def_377 (and .def_361 .def_376)))
(let ((.def_23 (and .s.1 .def_22)))
(let ((.def_24 (and .def_14 .def_23)))
(let ((.def_25 (and .def_17 .def_24)))
(let ((.def_339 (and .def_20 .def_25)))
(let ((.def_340 (not .def_339)))
(let ((.def_341 (or .def_65 .def_340)))
(let ((.def_378 (and .def_341 .def_377)))
(let ((.def_331 (= main.i.next 0)))
(let ((.def_69 (and .s.2.next .def_56)))
(let ((.def_70 (and .def_49 .def_69)))
(let ((.def_71 (and .def_47 .def_70)))
(let ((.def_332 (and .def_71 .def_331)))
(let ((.def_333 (and .def_42 .def_332)))
(let ((.def_334 (and .def_39 .def_333)))
(let ((.def_335 (and .def_36 .def_334)))
(let ((.def_336 (and .def_33 .def_335)))
(let ((.def_337 (and .def_30 .def_336)))
(let ((.def_100 (and .s.1 .s.0)))
(let ((.def_161 (and .def_14 .def_100)))
(let ((.def_328 (and .def_17 .def_161)))
(let ((.def_329 (and .def_20 .def_328)))
(let ((.def_330 (not .def_329)))
(let ((.def_338 (or .def_330 .def_337)))
(let ((.def_379 (and .def_338 .def_378)))
(let ((.def_320 (and .s.4.next .def_319)))
(let ((.def_321 (and .def_45 .def_320)))
(let ((.def_322 (and .def_42 .def_321)))
(let ((.def_323 (and .def_39 .def_322)))
(let ((.def_324 (and .def_36 .def_323)))
(let ((.def_325 (and .def_33 .def_324)))
(let ((.def_326 (and .def_30 .def_325)))
(let ((.def_304 (<= main.n main.i)))
(let ((.def_148 (and .s.2 .def_79)))
(let ((.def_302 (and .def_17 .def_148)))
(let ((.def_303 (and .def_20 .def_302)))
(let ((.def_317 (and .def_303 .def_304)))
(let ((.def_318 (not .def_317)))
(let ((.def_327 (or .def_318 .def_326)))
(let ((.def_380 (and .def_327 .def_379)))
(let ((.def_89 (and .def_53 .s.0.next)))
(let ((.def_138 (and .s.2.next .def_89)))
(let ((.def_308 (and .def_49 .def_138)))
(let ((.def_309 (and .def_47 .def_308)))
(let ((.def_310 (and .def_45 .def_309)))
(let ((.def_311 (and .def_42 .def_310)))
(let ((.def_312 (and .def_39 .def_311)))
(let ((.def_313 (and .def_36 .def_312)))
(let ((.def_314 (and .def_33 .def_313)))
(let ((.def_315 (and .def_30 .def_314)))
(let ((.def_305 (not .def_304)))
(let ((.def_306 (and .def_303 .def_305)))
(let ((.def_307 (not .def_306)))
(let ((.def_316 (or .def_307 .def_315)))
(let ((.def_381 (and .def_316 .def_380)))
(let ((.def_292 (* (- 2) main.i)))
(let ((.def_293 (+ main.j.next .def_292)))
(let ((.def_294 (= .def_293 0)))
(let ((.def_106 (and .s.2.next .def_105)))
(let ((.def_107 (and .def_49 .def_106)))
(let ((.def_108 (and .def_47 .def_107)))
(let ((.def_295 (and .def_108 .def_294)))
(let ((.def_296 (and .def_45 .def_295)))
(let ((.def_297 (and .def_39 .def_296)))
(let ((.def_298 (and .def_36 .def_297)))
(let ((.def_299 (and .def_33 .def_298)))
(let ((.def_300 (and .def_30 .def_299)))
(let ((.def_134 (and .def_12 .s.2)))
(let ((.def_286 (and .def_17 .def_134)))
(let ((.def_287 (and .def_20 .def_286)))
(let ((.def_288 (not .def_287)))
(let ((.def_301 (or .def_288 .def_300)))
(let ((.def_382 (and .def_301 .def_381)))
(let ((.def_278 (and .s.4.next .def_58)))
(let ((.def_279 (and .def_45 .def_278)))
(let ((.def_280 (and .def_42 .def_279)))
(let ((.def_281 (and .def_39 .def_280)))
(let ((.def_282 (and .def_36 .def_281)))
(let ((.def_283 (and .def_33 .def_282)))
(let ((.def_284 (and .def_30 .def_283)))
(let ((.def_261 (* (- 3) main.i)))
(let ((.def_262 (+ main.j .def_261)))
(let ((.def_263 (<= 0 .def_262)))
(let ((.def_116 (and .s.2 .def_23)))
(let ((.def_254 (and .def_17 .def_116)))
(let ((.def_255 (and .def_20 .def_254)))
(let ((.def_276 (and .def_255 .def_263)))
(let ((.def_277 (not .def_276)))
(let ((.def_285 (or .def_277 .def_284)))
(let ((.def_383 (and .def_285 .def_382)))
(let ((.def_124 (and .s.2.next .def_123)))
(let ((.def_267 (and .def_49 .def_124)))
(let ((.def_268 (and .def_47 .def_267)))
(let ((.def_269 (and .def_45 .def_268)))
(let ((.def_270 (and .def_42 .def_269)))
(let ((.def_271 (and .def_39 .def_270)))
(let ((.def_272 (and .def_36 .def_271)))
(let ((.def_273 (and .def_33 .def_272)))
(let ((.def_274 (and .def_30 .def_273)))
(let ((.def_264 (not .def_263)))
(let ((.def_265 (and .def_255 .def_264)))
(let ((.def_266 (not .def_265)))
(let ((.def_275 (or .def_266 .def_274)))
(let ((.def_384 (and .def_275 .def_383)))
(let ((.def_246 (= main.k.next main.i)))
(let ((.def_152 (and .s.3.next .def_57)))
(let ((.def_153 (and .def_47 .def_152)))
(let ((.def_247 (and .def_153 .def_246)))
(let ((.def_248 (and .def_45 .def_247)))
(let ((.def_249 (and .def_42 .def_248)))
(let ((.def_250 (and .def_36 .def_249)))
(let ((.def_251 (and .def_33 .def_250)))
(let ((.def_252 (and .def_30 .def_251)))
(let ((.def_101 (and .s.2 .def_100)))
(let ((.def_243 (and .def_17 .def_101)))
(let ((.def_244 (and .def_20 .def_243)))
(let ((.def_245 (not .def_244)))
(let ((.def_253 (or .def_245 .def_252)))
(let ((.def_385 (and .def_253 .def_384)))
(let ((.def_234 (and .s.3.next .def_106)))
(let ((.def_235 (and .def_47 .def_234)))
(let ((.def_236 (and .def_45 .def_235)))
(let ((.def_237 (and .def_42 .def_236)))
(let ((.def_238 (and .def_39 .def_237)))
(let ((.def_239 (and .def_36 .def_238)))
(let ((.def_240 (and .def_33 .def_239)))
(let ((.def_241 (and .def_30 .def_240)))
(let ((.def_219 (<= main.j main.k)))
(let ((.def_217 (and .s.3 .def_80)))
(let ((.def_218 (and .def_20 .def_217)))
(let ((.def_232 (and .def_218 .def_219)))
(let ((.def_233 (not .def_232)))
(let ((.def_242 (or .def_233 .def_241)))
(let ((.def_386 (and .def_242 .def_385)))
(let ((.def_90 (and .def_51 .def_89)))
(let ((.def_223 (and .s.3.next .def_90)))
(let ((.def_224 (and .def_47 .def_223)))
(let ((.def_225 (and .def_45 .def_224)))
(let ((.def_226 (and .def_42 .def_225)))
(let ((.def_227 (and .def_39 .def_226)))
(let ((.def_228 (and .def_36 .def_227)))
(let ((.def_229 (and .def_33 .def_228)))
(let ((.def_230 (and .def_30 .def_229)))
(let ((.def_220 (not .def_219)))
(let ((.def_221 (and .def_218 .def_220)))
(let ((.def_222 (not .def_221)))
(let ((.def_231 (or .def_222 .def_230)))
(let ((.def_387 (and .def_231 .def_386)))
(let ((.def_208 (and .s.3.next .def_207)))
(let ((.def_209 (and .def_47 .def_208)))
(let ((.def_210 (and .def_45 .def_209)))
(let ((.def_211 (and .def_42 .def_210)))
(let ((.def_212 (and .def_39 .def_211)))
(let ((.def_213 (and .def_36 .def_212)))
(let ((.def_214 (and .def_33 .def_213)))
(let ((.def_215 (and .def_30 .def_214)))
(let ((.def_194 (* (- 1) main.k)))
(let ((.def_198 (+ .def_194 main.i)))
(let ((.def_193 (* 2 main.n)))
(let ((.def_199 (+ .def_193 .def_198)))
(let ((.def_200 (<= 0 .def_199)))
(let ((.def_190 (and .def_15 .s.3)))
(let ((.def_191 (and .def_20 .def_190)))
(let ((.def_205 (and .def_191 .def_200)))
(let ((.def_206 (not .def_205)))
(let ((.def_216 (or .def_206 .def_215)))
(let ((.def_388 (and .def_216 .def_387)))
(let ((.def_201 (not .def_200)))
(let ((.def_202 (and .def_191 .def_201)))
(let ((.def_203 (not .def_202)))
(let ((.def_139 (and .s.3.next .def_138)))
(let ((.def_140 (and .def_47 .def_139)))
(let ((.def_141 (and .def_45 .def_140)))
(let ((.def_142 (and .def_42 .def_141)))
(let ((.def_143 (and .def_39 .def_142)))
(let ((.def_144 (and .def_36 .def_143)))
(let ((.def_145 (and .def_33 .def_144)))
(let ((.def_146 (and .def_30 .def_145)))
(let ((.def_204 (or .def_146 .def_203)))
(let ((.def_389 (and .def_204 .def_388)))
(let ((.def_181 (and .s.3.next .def_180)))
(let ((.def_182 (and .def_47 .def_181)))
(let ((.def_183 (and .def_45 .def_182)))
(let ((.def_184 (and .def_42 .def_183)))
(let ((.def_185 (and .def_39 .def_184)))
(let ((.def_186 (and .def_36 .def_185)))
(let ((.def_187 (and .def_33 .def_186)))
(let ((.def_188 (and .def_30 .def_187)))
(let ((.def_177 (and .s.3 .def_24)))
(let ((.def_178 (and .def_20 .def_177)))
(let ((.def_179 (not .def_178)))
(let ((.def_189 (or .def_179 .def_188)))
(let ((.def_390 (and .def_189 .def_389)))
(let ((.def_168 (and .s.3.next .def_69)))
(let ((.def_169 (and .def_47 .def_168)))
(let ((.def_165 (* (- 1) main.k.next)))
(let ((.def_166 (+ main.k .def_165)))
(let ((.def_167 (= .def_166 (- 1))))
(let ((.def_170 (and .def_167 .def_169)))
(let ((.def_171 (and .def_45 .def_170)))
(let ((.def_172 (and .def_42 .def_171)))
(let ((.def_173 (and .def_36 .def_172)))
(let ((.def_174 (and .def_33 .def_173)))
(let ((.def_175 (and .def_30 .def_174)))
(let ((.def_162 (and .s.3 .def_161)))
(let ((.def_163 (and .def_20 .def_162)))
(let ((.def_164 (not .def_163)))
(let ((.def_176 (or .def_164 .def_175)))
(let ((.def_391 (and .def_176 .def_390)))
(let ((.def_154 (and .def_45 .def_153)))
(let ((.def_155 (and .def_42 .def_154)))
(let ((.def_156 (and .def_39 .def_155)))
(let ((.def_157 (and .def_36 .def_156)))
(let ((.def_158 (and .def_33 .def_157)))
(let ((.def_159 (and .def_30 .def_158)))
(let ((.def_149 (and .s.3 .def_148)))
(let ((.def_150 (and .def_20 .def_149)))
(let ((.def_151 (not .def_150)))
(let ((.def_160 (or .def_151 .def_159)))
(let ((.def_392 (and .def_160 .def_391)))
(let ((.def_135 (and .s.3 .def_134)))
(let ((.def_136 (and .def_20 .def_135)))
(let ((.def_137 (not .def_136)))
(let ((.def_147 (or .def_137 .def_146)))
(let ((.def_393 (and .def_147 .def_392)))
(let ((.def_125 (and .s.3.next .def_124)))
(let ((.def_126 (and .def_47 .def_125)))
(let ((.def_120 (* (- 1) main.j.next)))
(let ((.def_121 (+ main.j .def_120)))
(let ((.def_122 (= .def_121 (- 1))))
(let ((.def_127 (and .def_122 .def_126)))
(let ((.def_128 (and .def_45 .def_127)))
(let ((.def_129 (and .def_39 .def_128)))
(let ((.def_130 (and .def_36 .def_129)))
(let ((.def_131 (and .def_33 .def_130)))
(let ((.def_132 (and .def_30 .def_131)))
(let ((.def_117 (and .s.3 .def_116)))
(let ((.def_118 (and .def_20 .def_117)))
(let ((.def_119 (not .def_118)))
(let ((.def_133 (or .def_119 .def_132)))
(let ((.def_394 (and .def_133 .def_393)))
(let ((.def_109 (and .def_45 .def_108)))
(let ((.def_110 (and .def_42 .def_109)))
(let ((.def_111 (and .def_39 .def_110)))
(let ((.def_112 (and .def_36 .def_111)))
(let ((.def_113 (and .def_33 .def_112)))
(let ((.def_114 (and .def_30 .def_113)))
(let ((.def_102 (and .s.3 .def_101)))
(let ((.def_103 (and .def_20 .def_102)))
(let ((.def_104 (not .def_103)))
(let ((.def_115 (or .def_104 .def_114)))
(let ((.def_395 (and .def_115 .def_394)))
(let ((.def_91 (and .def_49 .def_90)))
(let ((.def_92 (and .s.4.next .def_91)))
(let ((.def_86 (* (- 1) main.i.next)))
(let ((.def_87 (+ main.i .def_86)))
(let ((.def_88 (= .def_87 (- 1))))
(let ((.def_93 (and .def_88 .def_92)))
(let ((.def_94 (and .def_42 .def_93)))
(let ((.def_95 (and .def_39 .def_94)))
(let ((.def_96 (and .def_36 .def_95)))
(let ((.def_97 (and .def_33 .def_96)))
(let ((.def_98 (and .def_30 .def_97)))
(let ((.def_82 (and .s.4 .def_81)))
(let ((.def_83 (not .def_82)))
(let ((.def_99 (or .def_83 .def_98)))
(let ((.def_396 (and .def_99 .def_395)))
(let ((.def_72 (and .def_45 .def_71)))
(let ((.def_73 (and .def_42 .def_72)))
(let ((.def_74 (and .def_39 .def_73)))
(let ((.def_75 (and .def_36 .def_74)))
(let ((.def_76 (and .def_33 .def_75)))
(let ((.def_77 (and .def_30 .def_76)))
(let ((.def_67 (and .def_18 .s.4)))
(let ((.def_68 (not .def_67)))
(let ((.def_78 (or .def_68 .def_77)))
(let ((.def_397 (and .def_78 .def_396)))
(let ((.def_26 (and .s.4 .def_25)))
(let ((.def_27 (not .def_26)))
(let ((.def_66 (or .def_27 .def_65)))
(let ((.def_398 (and .def_66 .def_397)))
.def_398)))))))))))))))))))))))))))))))))))))))))))))))))))))))))))))))))))))))))))))))))))))))))))))))))))))))))))))))))))))))))))))))))))))))))))))))))))))))))))))))))))))))))))))))))))))))))))))))))))))))))))))))))))))))))))))))))))))))))))))))))))))))))))))))))))))))))))))))))))))))))))))))))))))))))))))))))))))))))))))))))))))))))))))))))))))))))))))))) (state |.s.1.next| |.s.0.next| |.s.2.next| |.s.3.next| |.s.4.next| |main.n.next| |main.m.next| |main.l.next| |main.k.next| |main.j.next| |main.i.next|))))
(assert (forall ((|.s.2| Bool) (|.s.3| Bool) (|.s.0| Bool) (|.s.1| Bool) (|.s.0.next| Bool) (|.s.1.next| Bool) (|.s.2.next| Bool) (|.s.3.next| Bool) (|.s.4.next| Bool) (|main.i.next| Int) (|main.i| Int) (|main.j.next| Int) (|main.j| Int) (|main.k.next| Int) (|main.k| Int) (|main.l.next| Int) (|main.l| Int) (|main.m.next| Int) (|main.m| Int) (|main.n.next| Int) (|main.n| Int) (|.s.4| Bool)) (=> (state |.s.1| |.s.0| |.s.2| |.s.3| |.s.4| |main.n| |main.m| |main.l| |main.k| |main.j| |main.i|) (let ((.def_10 (not .s.1)))
(let ((.def_12 (and .def_10 .s.0)))
(let ((.def_134 (and .def_12 .s.2)))
(let ((.def_135 (and .s.3 .def_134)))
(let ((.def_20 (not .s.4)))
(let ((.def_136 (and .def_20 .def_135)))
(let ((.def_137 (not .def_136)))
.def_137))))))))))
(check-sat)
